/*********************************************
 * OPL 12.5.1.0 Data
 * Author: Stijn
 * Creation Date: 11-dec.-2015 at 21:01:59
 *********************************************/

nrPeriodes = 4;
vraag = [4000, 2000, 3000, 10000];